NAME: eilB101_20
COMMENT: 1098.95
VEHICLE: 14
TIME: 150.8726
DIMENSION: 101
CAPACITY: 112
DELIVERY_SECTION
0 0 0
1 1 5.6
2 1 1.12
3 1 1.12
4 1 1.12
5 1 1.04
6 2 5.6
7 2 1.12
8 2 0.28
9 3 11.2
10 3 1.12
11 3 0.68
12 4 11.2
13 4 5.6
14 4 1.12
15 4 1.08
16 5 22.4
17 5 1.12
18 5 1.12
19 5 1.12
20 5 0.24
21 6 1.12
22 6 1.12
23 6 0.76
24 7 1.12
25 7 1.12
26 7 1.12
27 7 1.12
28 7 0.52
29 8 5.6
30 8 1.12
31 8 1.12
32 8 1.12
33 8 0.04
34 9 11.2
35 9 1.12
36 9 1.12
37 9 1.12
38 9 1.12
39 9 0.32
40 10 11.2
41 10 1.12
42 10 1.12
43 10 1.12
44 10 1.12
45 10 0.32
46 11 11.2
47 11 0.8
48 12 11.2
49 12 5.6
50 12 1.12
51 12 1.08
52 13 22.4
53 13 0.6
54 14 11.2
55 14 5.6
56 14 1.12
57 14 1.12
58 14 0.96
59 15 5.6
60 15 1.12
61 15 1.12
62 15 0.16
63 16 11.2
64 16 5.6
65 16 1.12
66 16 1.08
67 17 1.12
68 17 0.88
69 18 11.2
70 18 0.8
71 19 11.2
72 19 5.6
73 19 0.2
74 20 5.6
75 20 1.12
76 20 1.12
77 20 1.12
78 20 0.04
79 21 5.6
80 21 1.12
81 21 1.12
82 21 1.12
83 21 1.12
84 21 0.92
85 22 11.2
86 22 5.6
87 22 1.12
88 22 0.08
89 23 22.4
90 23 5.6
91 23 1
92 24 1.12
93 24 1.12
94 24 0.76
95 25 5.6
96 25 0.4
97 26 11.2
98 26 5.6
99 26 0.2
100 27 11.2
101 27 1.12
102 27 1.12
103 27 1.12
104 27 1.12
105 27 0.32
106 28 11.2
107 28 1.12
108 28 1.12
109 28 1.12
110 28 1.12
111 28 0.32
112 29 5.6
113 29 1.12
114 29 1.12
115 29 1.12
116 29 0.04
117 30 11.2
118 30 5.6
119 30 1.12
120 30 1.12
121 30 1.12
122 30 0.84
123 31 22.4
124 31 1.12
125 31 1.12
126 31 1.12
127 31 1.12
128 31 0.12
129 32 22.4
130 32 0.6
131 33 5.6
132 33 1.12
133 33 1.12
134 33 1.12
135 33 1.12
136 33 0.92
137 34 11.2
138 34 1.12
139 34 1.12
140 34 0.56
141 35 5.6
142 35 1.12
143 35 1.12
144 35 0.16
145 36 1.12
146 36 1.12
147 36 1.12
148 36 1.12
149 36 0.52
150 37 5.6
151 37 1.12
152 37 1.12
153 37 0.16
154 38 11.2
155 38 1.12
156 38 1.12
157 38 1.12
158 38 1.12
159 38 0.32
160 39 22.4
161 39 5.6
162 39 1.12
163 39 1.12
164 39 0.76
165 40 5.6
166 40 1.12
167 40 1.12
168 40 1.12
169 40 0.04
170 41 1.12
171 41 1.12
172 41 1.12
173 41 1.12
174 41 0.52
175 42 1.12
176 42 1.12
177 42 1.12
178 42 1.12
179 42 0.52
180 43 5.6
181 43 1.12
182 43 0.28
183 44 11.2
184 44 5.6
185 44 1.12
186 44 0.08
187 45 11.2
188 45 1.12
189 45 1.12
190 45 1.12
191 45 1.12
192 45 0.32
193 46 1
194 47 22.4
195 47 1.12
196 47 1.12
197 47 1.12
198 47 1.12
199 47 0.12
200 48 22.4
201 48 11.2
202 48 1.12
203 48 1.12
204 48 0.16
205 49 22.4
206 49 5.6
207 49 1.12
208 49 0.88
209 50 11.2
210 50 1.12
211 50 0.68
212 51 5.6
213 51 1.12
214 51 1.12
215 51 1.12
216 51 1.04
217 52 5.6
218 52 1.12
219 52 1.12
220 52 1.12
221 52 0.04
222 53 11.2
223 53 1.12
224 53 1.12
225 53 0.56
226 54 11.2
227 54 5.6
228 54 1.12
229 54 0.08
230 55 1.12
231 55 0.88
232 56 5.6
233 56 0.4
234 57 5.6
235 57 1.12
236 57 0.28
237 58 11.2
238 58 5.6
239 58 1.12
240 58 0.08
241 59 22.4
242 59 1.12
243 59 1.12
244 59 1.12
245 59 1.12
246 59 1.12
247 60 1.12
248 60 1.12
249 60 0.76
250 61 11.2
251 61 1.12
252 61 0.68
253 62 11.2
254 62 5.6
255 62 1.12
256 62 1.08
257 63 5.6
258 63 1.12
259 63 1.12
260 63 1.12
261 63 1.04
262 64 5.6
263 64 1.12
264 64 1.12
265 64 1.12
266 64 0.04
267 65 11.2
268 65 5.6
269 65 1.12
270 65 1.12
271 65 0.96
272 66 22.4
273 66 1.12
274 66 1.12
275 66 0.36
276 67 22.4
277 67 1.12
278 67 1.12
279 67 0.36
280 68 22.4
281 68 11.2
282 68 1.12
283 68 1.12
284 68 0.16
285 69 5.6
286 69 0.4
287 70 1.12
288 70 1.12
289 70 1.12
290 70 1.12
291 70 0.52
292 71 11.2
293 71 1.12
294 71 1.12
295 71 1.12
296 71 0.44
297 72 22.4
298 72 1.12
299 72 1.12
300 72 0.36
301 73 5.6
302 73 1.12
303 73 1.12
304 73 1.12
305 73 0.04
306 74 5.6
307 74 1.12
308 74 1.12
309 74 0.16
310 75 11.2
311 75 5.6
312 75 1.12
313 75 0.08
314 76 11.2
315 76 1.12
316 76 0.68
317 77 11.2
318 77 1.12
319 77 1.12
320 77 0.56
321 78 1.12
322 78 1.12
323 78 0.76
324 79 22.4
325 79 0.6
326 80 5.6
327 80 0.4
328 81 22.4
329 81 1.12
330 81 1.12
331 81 1.12
332 81 0.24
333 82 11.2
334 82 1.12
335 82 1.12
336 82 1.12
337 82 1.12
338 82 0.32
339 83 5.6
340 83 1.12
341 83 1.12
342 83 1.12
343 83 1.12
344 83 0.92
345 84 5.6
346 84 1.12
347 84 0.28
348 85 22.4
349 85 11.2
350 85 5.6
351 85 1.12
352 85 0.68
353 86 22.4
354 86 11.2
355 86 1.12
356 86 0.28
357 87 22.4
358 87 1.12
359 87 1.12
360 87 1.12
361 87 0.24
362 88 5.6
363 88 1.12
364 88 1.12
365 88 1.12
366 88 0.04
367 89 11.2
368 89 1.12
369 89 1.12
370 89 1.12
371 89 0.44
372 90 1.12
373 90 1.12
374 90 0.76
375 91 1
376 92 1.12
377 92 0.88
378 93 11.2
379 93 5.6
380 93 1.12
381 93 1.12
382 93 1.12
383 93 1.12
384 93 0.72
385 94 22.4
386 94 1.12
387 94 1.12
388 94 1.12
389 94 1.12
390 94 0.12
391 95 11.2
392 95 5.6
393 95 1.12
394 95 1.12
395 95 0.96
396 96 5.6
397 96 1.12
398 96 1.12
399 96 1.12
400 96 1.12
401 96 0.92
402 97 11.2
403 97 0.8
404 98 5.6
405 98 1.12
406 98 1.12
407 98 1.12
408 98 1.04
409 99 5.6
410 99 1.12
411 99 1.12
412 99 1.12
413 99 0.04
414 100 11.2
415 100 5.6
416 100 0.2
PICKUP_SECTION
NODE_SECTION
35 35

41 49

35 17

55 45

55 20

15 30

25 30

20 50

10 43

55 60

30 60

20 65

50 35

30 25

15 10

30  5

10 20
 
5 30

20 40

15 60

45 65

45 20

45 10

55  5

65 35

65 20

45 30

35 40

41 37

64 42

40 60

31 52

35 69

53 52

65 55

63 65

 2 60

20 20

 5  5

60 12

40 25

42  7

24 12

23  3

11 14

 6 38

 2 48

 8 56

13 52

 6 68

47 47

49 58

27 43

37 31

57 29

63 23

53 12

32 12

36 26

21 24

17 34

12 24

24 58

27 69

15 77

62 77

49 73

67  5

56 39

37 47

37 56

57 68

47 16

44 17

46 13

49 11

49 42

53 43

61 52

57 48

56 37

55 54

15 47

14 37

11 31

16 22

 4 18

28 18

26 52

26 35

31 67

15 19

22 22

18 24

26 27

25 24

22 27

25 21

19 21

20 26

18 18
DISTANCE_SECTION
DEPOT_SECTION
0
EOF